(set-info :smt-lib-version 2.6)
(set-logic ALL)
(set-info :source |
Benchmarks used in the followin paper:
Big proof engines as little proof engines: new results on rewrite-based satisfiability procedure
Alessandro Armando, Maria Paola Bonacina, Silvio Ranise, Stephan Schulz. 
PDPAR'05
http://www.ai.dist.unige.it/pdpar05/


|)
(set-info :category "crafted")
(set-info :status sat)

(declare-sort Element 0)
(declare-fun a_1168 () (Seq Element))
(declare-fun a_1170 () (Seq Element))
(declare-fun a_1172 () (Seq Element))
(declare-fun a_1174 () (Seq Element))
(declare-fun a_1176 () (Seq Element))
(declare-fun a_1178 () (Seq Element))
(declare-fun a_1180 () (Seq Element))
(declare-fun a_1182 () (Seq Element))
(declare-fun a_1184 () (Seq Element))
(declare-fun a_1186 () (Seq Element))
(declare-fun a_1188 () (Seq Element))
(declare-fun a_1190 () (Seq Element))
(declare-fun a_1192 () (Seq Element))
(declare-fun a_1194 () (Seq Element))
(declare-fun a_1196 () (Seq Element))
(declare-fun a_1198 () (Seq Element))
(declare-fun a_1200 () (Seq Element))
(declare-fun a_1202 () (Seq Element))
(declare-fun a_1204 () (Seq Element))
(declare-fun a_1206 () (Seq Element))
(declare-fun a_1207 () (Seq Element))
(declare-fun a_1208 () (Seq Element))
(declare-fun a_1210 () (Seq Element))
(declare-fun a_1212 () (Seq Element))
(declare-fun a_1214 () (Seq Element))
(declare-fun a_1216 () (Seq Element))
(declare-fun a_1218 () (Seq Element))
(declare-fun a_1220 () (Seq Element))
(declare-fun a_1222 () (Seq Element))
(declare-fun a_1224 () (Seq Element))
(declare-fun a_1226 () (Seq Element))
(declare-fun a_1228 () (Seq Element))
(declare-fun a_1230 () (Seq Element))
(declare-fun a_1232 () (Seq Element))
(declare-fun a_1234 () (Seq Element))
(declare-fun a_1236 () (Seq Element))
(declare-fun a_1238 () (Seq Element))
(declare-fun a_1240 () (Seq Element))
(declare-fun a_1242 () (Seq Element))
(declare-fun a_1244 () (Seq Element))
(declare-fun e_1167 () Element)
(declare-fun e_1169 () Element)
(declare-fun e_1171 () Element)
(declare-fun e_1173 () Element)
(declare-fun e_1175 () Element)
(declare-fun e_1177 () Element)
(declare-fun e_1179 () Element)
(declare-fun e_1181 () Element)
(declare-fun e_1183 () Element)
(declare-fun e_1185 () Element)
(declare-fun e_1187 () Element)
(declare-fun e_1189 () Element)
(declare-fun e_1191 () Element)
(declare-fun e_1193 () Element)
(declare-fun e_1195 () Element)
(declare-fun e_1197 () Element)
(declare-fun e_1199 () Element)
(declare-fun e_1201 () Element)
(declare-fun e_1203 () Element)
(declare-fun e_1205 () Element)
(declare-fun e_1209 () Element)
(declare-fun e_1211 () Element)
(declare-fun e_1213 () Element)
(declare-fun e_1215 () Element)
(declare-fun e_1217 () Element)
(declare-fun e_1219 () Element)
(declare-fun e_1221 () Element)
(declare-fun e_1223 () Element)
(declare-fun e_1225 () Element)
(declare-fun e_1227 () Element)
(declare-fun e_1229 () Element)
(declare-fun e_1231 () Element)
(declare-fun e_1233 () Element)
(declare-fun e_1235 () Element)
(declare-fun e_1237 () Element)
(declare-fun e_1239 () Element)
(declare-fun e_1241 () Element)
(declare-fun e_1243 () Element)
(declare-fun a1 () (Seq Element))
(declare-fun i0 () Int)
(declare-fun i1 () Int)
(declare-fun i2 () Int)
(declare-fun i3 () Int)
(declare-fun i4 () Int)
(declare-fun i5 () Int)
(declare-fun i6 () Int)
(declare-fun i7 () Int)
(declare-fun i8 () Int)
(declare-fun i9 () Int)
(assert (= a_1168 (seq.update a1 i8 (seq.unit e_1167))))
(assert (= a_1170 (seq.update a_1168 i0 (seq.unit e_1169))))
(assert (= a_1172 (seq.update a_1170 i4 (seq.unit e_1171))))
(assert (= a_1174 (seq.update a_1172 i5 (seq.unit e_1173))))
(assert (= a_1176 (seq.update a_1174 i9 (seq.unit e_1175))))
(assert (= a_1178 (seq.update a_1176 i2 (seq.unit e_1177))))
(assert (= a_1180 (seq.update a_1178 i5 (seq.unit e_1179))))
(assert (= a_1182 (seq.update a_1180 i4 (seq.unit e_1181))))
(assert (= a_1184 (seq.update a_1182 i3 (seq.unit e_1183))))
(assert (= a_1186 (seq.update a_1184 i0 (seq.unit e_1185))))
(assert (= a_1188 (seq.update a_1186 i3 (seq.unit e_1187))))
(assert (= a_1190 (seq.update a_1188 i4 (seq.unit e_1189))))
(assert (= a_1192 (seq.update a_1190 i9 (seq.unit e_1191))))
(assert (= a_1194 (seq.update a_1192 i7 (seq.unit e_1193))))
(assert (= a_1196 (seq.update a_1194 i5 (seq.unit e_1195))))
(assert (= a_1198 (seq.update a_1196 i1 (seq.unit e_1197))))
(assert (= a_1200 (seq.update a_1198 i8 (seq.unit e_1199))))
(assert (= a_1202 (seq.update a_1200 i1 (seq.unit e_1201))))
(assert (= a_1204 (seq.update a_1202 i5 (seq.unit e_1203))))
(assert (= a_1206 (seq.update a_1204 i7 (seq.unit e_1205))))
(assert (= a_1207 (seq.update a1 i0 (seq.unit e_1169))))
(assert (= a_1208 (seq.update a_1207 i8 (seq.unit e_1167))))
(assert (= a_1210 (seq.update a_1208 i5 (seq.unit e_1209))))
(assert (= a_1212 (seq.update a_1210 i4 (seq.unit e_1211))))
(assert (= a_1214 (seq.update a_1212 i9 (seq.unit e_1213))))
(assert (= a_1216 (seq.update a_1214 i2 (seq.unit e_1215))))
(assert (= a_1218 (seq.update a_1216 i4 (seq.unit e_1217))))
(assert (= a_1220 (seq.update a_1218 i5 (seq.unit e_1219))))
(assert (= a_1222 (seq.update a_1220 i0 (seq.unit e_1221))))
(assert (= a_1224 (seq.update a_1222 i3 (seq.unit e_1223))))
(assert (= a_1226 (seq.update a_1224 i3 (seq.unit e_1225))))
(assert (= a_1228 (seq.update a_1226 i4 (seq.unit e_1227))))
(assert (= a_1230 (seq.update a_1228 i7 (seq.unit e_1229))))
(assert (= a_1232 (seq.update a_1230 i9 (seq.unit e_1231))))
(assert (= a_1234 (seq.update a_1232 i1 (seq.unit e_1233))))
(assert (= a_1236 (seq.update a_1234 i5 (seq.unit e_1235))))
(assert (= a_1238 (seq.update a_1236 i8 (seq.unit e_1237))))
(assert (= a_1240 (seq.update a_1238 i1 (seq.unit e_1239))))
(assert (= a_1242 (seq.update a_1240 i7 (seq.unit e_1241))))
(assert (= a_1244 (seq.update a_1242 i6 (seq.unit e_1243))))
(assert (= e_1167 (seq.nth a1 i0)))
(assert (= e_1169 (seq.nth a1 i8)))
(assert (= e_1171 (seq.nth a_1170 i5)))
(assert (= e_1173 (seq.nth a_1170 i4)))
(assert (= e_1175 (seq.nth a_1174 i2)))
(assert (= e_1177 (seq.nth a_1174 i9)))
(assert (= e_1179 (seq.nth a_1178 i4)))
(assert (= e_1181 (seq.nth a_1178 i5)))
(assert (= e_1183 (seq.nth a_1182 i0)))
(assert (= e_1185 (seq.nth a_1182 i3)))
(assert (= e_1187 (seq.nth a_1186 i4)))
(assert (= e_1189 (seq.nth a_1186 i3)))
(assert (= e_1191 (seq.nth a_1190 i7)))
(assert (= e_1193 (seq.nth a_1190 i9)))
(assert (= e_1195 (seq.nth a_1194 i1)))
(assert (= e_1197 (seq.nth a_1194 i5)))
(assert (= e_1199 (seq.nth a_1198 i1)))
(assert (= e_1201 (seq.nth a_1198 i8)))
(assert (= e_1203 (seq.nth a_1202 i7)))
(assert (= e_1205 (seq.nth a_1202 i5)))
(assert (= e_1209 (seq.nth a_1208 i4)))
(assert (= e_1211 (seq.nth a_1208 i5)))
(assert (= e_1213 (seq.nth a_1212 i2)))
(assert (= e_1215 (seq.nth a_1212 i9)))
(assert (= e_1217 (seq.nth a_1216 i5)))
(assert (= e_1219 (seq.nth a_1216 i4)))
(assert (= e_1221 (seq.nth a_1220 i3)))
(assert (= e_1223 (seq.nth a_1220 i0)))
(assert (= e_1225 (seq.nth a_1224 i4)))
(assert (= e_1227 (seq.nth a_1224 i3)))
(assert (= e_1229 (seq.nth a_1228 i9)))
(assert (= e_1231 (seq.nth a_1228 i7)))
(assert (= e_1233 (seq.nth a_1232 i5)))
(assert (= e_1235 (seq.nth a_1232 i1)))
(assert (= e_1237 (seq.nth a_1236 i1)))
(assert (= e_1239 (seq.nth a_1236 i8)))
(assert (= e_1241 (seq.nth a_1240 i6)))
(assert (= e_1243 (seq.nth a_1240 i7)))
(assert (not (= a_1206 a_1244)))
(check-sat)
(exit)
